Optimal - objective value -916.00000000
      0 x_0                      1                     -67
      1 x_1                      0                       0
      2 x_2                      0                       0
      3 x_3                      1                     -58
      4 x_4                      0                       0
      5 x_5                      1                       0
      6 x_6                      0                       0
      7 x_7                      0                       0
      8 x_8                      1                     -77
      9 x_9                      0                       0
     10 x_10                     1                     -48
     11 x_11                     0                       0
     12 x_12                     1                       0
     13 x_13                     0                       0
     14 x_14                     1                     -14
     15 x_15                     0                       0
     16 x_16                     1                       0
     17 x_17                     0                       0
     18 x_18                     1                      -8
     19 x_19                     0                       0
     20 x_20                     1                       0
     21 x_21                     0                       0
     22 x_22                     1                     -11
     23 x_23                     0                       0
     24 x_24                     1                     -54
     25 x_25                     0                       0
     26 x_26                     1                       0
     27 x_27                     0                       0
     28 x_28                     1                     -20
     29 x_29                     0                       0
